<number of tasks>
20

<cycle time>
1000

<order strength>
0,284


<task times>
1 566
2 376
3 416
4 595
5 535
6 554
7 456
8 253
9 481
10 481
11 457
12 426
13 440
14 479
15 662
16 567
17 542
18 359
19 495
20 530

<precedence relations>
1,6
2,6
3,6
4,6
5,7
5,8
5,9
6,10
6,11
6,12
6,13
8,14
13,16
14,15
15,17
15,18
15,19
15,20

<end>
